
  22   10
  10   10   10   10   10   10   10   10   10   10

   0   0   0   0   0   0   0   0   0   0   0   6 2 7 9 13 17 21 
   7  10  10  10  10  10  10  10  10  10  10   2 16 3 
   3  10  10  10  10  10  10  10  10  10  10   2 15 4 
   3  10  10  10  10  10  10  10  10  10  10   1 5 
   7  10  10  10  10  10  10  10  10  10  10   2 20 6 
  10  10  10  10  10  10  10  10  10  10  10   2 19 8 
   1  10  10  10  10  10  10  10  10  10  10   2 19 11 
   4  10  10  10  10  10  10  10  10  10  10   1 10 
   1  10  10  10  10  10  10  10  10  10  10   1 10 
   3  10  10  10  10  10  10  10  10  10  10   1 12 
   3  10  10  10  10  10  10  10  10  10  10   1 12 
   5  10  10  10  10  10  10  10  10  10  10   1 14 
   5  10  10  10  10  10  10  10  10  10  10   1 14 
   6  10  10  10  10  10  10  10  10  10  10   1 18 
   4  10  10  10  10  10  10  10  10  10  10   1 19 
   5  10  10  10  10  10  10  10  10  10  10   1 20 
   8  10  10  10  10  10  10  10  10  10  10   1 18 
   9  10  10  10  10  10  10  10  10  10  10   1 22
   9  10  10  10  10  10  10  10  10  10  10   1 22
   5  10  10  10  10  10  10  10  10  10  10   1 22
   7  10  10  10  10  10  10  10  10  10  10   1 22
   0   0   0   0   0   0   0   0   0   0   0   0 
